c *********************************
c * Circuit generated by BenCGen
c *
c * RippleCarryAdder_29_29_29_InOutT
c *
c * Ports with 1 gate(s): 1
c * Ports with 2 gate(s): 146
c * Total gates: 147
c *********************************
p cnf 205 498
1 90 0
-1 -90 0
1 -89 0
90 -89 0
-1 -90 89 0
1 30 -92 0
-1 30 92 0
1 -30 92 0
-1 -30 -92 0
92 89 -59 0
-92 89 59 0
92 -89 59 0
-92 -89 -59 0
89 -93 0
92 -93 0
-89 -92 93 0
30 -94 0
1 -94 0
-30 -1 94 0
-93 91 0
-94 91 0
93 94 -91 0
2 31 -96 0
-2 31 96 0
2 -31 96 0
-2 -31 -96 0
96 91 -60 0
-96 91 60 0
96 -91 60 0
-96 -91 -60 0
91 -97 0
96 -97 0
-91 -96 97 0
31 -98 0
2 -98 0
-31 -2 98 0
-97 95 0
-98 95 0
97 98 -95 0
3 32 -100 0
-3 32 100 0
3 -32 100 0
-3 -32 -100 0
100 95 -61 0
-100 95 61 0
100 -95 61 0
-100 -95 -61 0
95 -101 0
100 -101 0
-95 -100 101 0
32 -102 0
3 -102 0
-32 -3 102 0
-101 99 0
-102 99 0
101 102 -99 0
4 33 -104 0
-4 33 104 0
4 -33 104 0
-4 -33 -104 0
104 99 -62 0
-104 99 62 0
104 -99 62 0
-104 -99 -62 0
99 -105 0
104 -105 0
-99 -104 105 0
33 -106 0
4 -106 0
-33 -4 106 0
-105 103 0
-106 103 0
105 106 -103 0
5 34 -108 0
-5 34 108 0
5 -34 108 0
-5 -34 -108 0
108 103 -63 0
-108 103 63 0
108 -103 63 0
-108 -103 -63 0
103 -109 0
108 -109 0
-103 -108 109 0
34 -110 0
5 -110 0
-34 -5 110 0
-109 107 0
-110 107 0
109 110 -107 0
6 35 -112 0
-6 35 112 0
6 -35 112 0
-6 -35 -112 0
112 107 -64 0
-112 107 64 0
112 -107 64 0
-112 -107 -64 0
107 -113 0
112 -113 0
-107 -112 113 0
35 -114 0
6 -114 0
-35 -6 114 0
-113 111 0
-114 111 0
113 114 -111 0
7 36 -116 0
-7 36 116 0
7 -36 116 0
-7 -36 -116 0
116 111 -65 0
-116 111 65 0
116 -111 65 0
-116 -111 -65 0
111 -117 0
116 -117 0
-111 -116 117 0
36 -118 0
7 -118 0
-36 -7 118 0
-117 115 0
-118 115 0
117 118 -115 0
8 37 -120 0
-8 37 120 0
8 -37 120 0
-8 -37 -120 0
120 115 -66 0
-120 115 66 0
120 -115 66 0
-120 -115 -66 0
115 -121 0
120 -121 0
-115 -120 121 0
37 -122 0
8 -122 0
-37 -8 122 0
-121 119 0
-122 119 0
121 122 -119 0
9 38 -124 0
-9 38 124 0
9 -38 124 0
-9 -38 -124 0
124 119 -67 0
-124 119 67 0
124 -119 67 0
-124 -119 -67 0
119 -125 0
124 -125 0
-119 -124 125 0
38 -126 0
9 -126 0
-38 -9 126 0
-125 123 0
-126 123 0
125 126 -123 0
10 39 -128 0
-10 39 128 0
10 -39 128 0
-10 -39 -128 0
128 123 -68 0
-128 123 68 0
128 -123 68 0
-128 -123 -68 0
123 -129 0
128 -129 0
-123 -128 129 0
39 -130 0
10 -130 0
-39 -10 130 0
-129 127 0
-130 127 0
129 130 -127 0
11 40 -132 0
-11 40 132 0
11 -40 132 0
-11 -40 -132 0
132 127 -69 0
-132 127 69 0
132 -127 69 0
-132 -127 -69 0
127 -133 0
132 -133 0
-127 -132 133 0
40 -134 0
11 -134 0
-40 -11 134 0
-133 131 0
-134 131 0
133 134 -131 0
12 41 -136 0
-12 41 136 0
12 -41 136 0
-12 -41 -136 0
136 131 -70 0
-136 131 70 0
136 -131 70 0
-136 -131 -70 0
131 -137 0
136 -137 0
-131 -136 137 0
41 -138 0
12 -138 0
-41 -12 138 0
-137 135 0
-138 135 0
137 138 -135 0
13 42 -140 0
-13 42 140 0
13 -42 140 0
-13 -42 -140 0
140 135 -71 0
-140 135 71 0
140 -135 71 0
-140 -135 -71 0
135 -141 0
140 -141 0
-135 -140 141 0
42 -142 0
13 -142 0
-42 -13 142 0
-141 139 0
-142 139 0
141 142 -139 0
14 43 -144 0
-14 43 144 0
14 -43 144 0
-14 -43 -144 0
144 139 -72 0
-144 139 72 0
144 -139 72 0
-144 -139 -72 0
139 -145 0
144 -145 0
-139 -144 145 0
43 -146 0
14 -146 0
-43 -14 146 0
-145 143 0
-146 143 0
145 146 -143 0
15 44 -148 0
-15 44 148 0
15 -44 148 0
-15 -44 -148 0
148 143 -73 0
-148 143 73 0
148 -143 73 0
-148 -143 -73 0
143 -149 0
148 -149 0
-143 -148 149 0
44 -150 0
15 -150 0
-44 -15 150 0
-149 147 0
-150 147 0
149 150 -147 0
16 45 -152 0
-16 45 152 0
16 -45 152 0
-16 -45 -152 0
152 147 -74 0
-152 147 74 0
152 -147 74 0
-152 -147 -74 0
147 -153 0
152 -153 0
-147 -152 153 0
45 -154 0
16 -154 0
-45 -16 154 0
-153 151 0
-154 151 0
153 154 -151 0
17 46 -156 0
-17 46 156 0
17 -46 156 0
-17 -46 -156 0
156 151 -75 0
-156 151 75 0
156 -151 75 0
-156 -151 -75 0
151 -157 0
156 -157 0
-151 -156 157 0
46 -158 0
17 -158 0
-46 -17 158 0
-157 155 0
-158 155 0
157 158 -155 0
18 47 -160 0
-18 47 160 0
18 -47 160 0
-18 -47 -160 0
160 155 -76 0
-160 155 76 0
160 -155 76 0
-160 -155 -76 0
155 -161 0
160 -161 0
-155 -160 161 0
47 -162 0
18 -162 0
-47 -18 162 0
-161 159 0
-162 159 0
161 162 -159 0
19 48 -164 0
-19 48 164 0
19 -48 164 0
-19 -48 -164 0
164 159 -77 0
-164 159 77 0
164 -159 77 0
-164 -159 -77 0
159 -165 0
164 -165 0
-159 -164 165 0
48 -166 0
19 -166 0
-48 -19 166 0
-165 163 0
-166 163 0
165 166 -163 0
20 49 -168 0
-20 49 168 0
20 -49 168 0
-20 -49 -168 0
168 163 -78 0
-168 163 78 0
168 -163 78 0
-168 -163 -78 0
163 -169 0
168 -169 0
-163 -168 169 0
49 -170 0
20 -170 0
-49 -20 170 0
-169 167 0
-170 167 0
169 170 -167 0
21 50 -172 0
-21 50 172 0
21 -50 172 0
-21 -50 -172 0
172 167 -79 0
-172 167 79 0
172 -167 79 0
-172 -167 -79 0
167 -173 0
172 -173 0
-167 -172 173 0
50 -174 0
21 -174 0
-50 -21 174 0
-173 171 0
-174 171 0
173 174 -171 0
22 51 -176 0
-22 51 176 0
22 -51 176 0
-22 -51 -176 0
176 171 -80 0
-176 171 80 0
176 -171 80 0
-176 -171 -80 0
171 -177 0
176 -177 0
-171 -176 177 0
51 -178 0
22 -178 0
-51 -22 178 0
-177 175 0
-178 175 0
177 178 -175 0
23 52 -180 0
-23 52 180 0
23 -52 180 0
-23 -52 -180 0
180 175 -81 0
-180 175 81 0
180 -175 81 0
-180 -175 -81 0
175 -181 0
180 -181 0
-175 -180 181 0
52 -182 0
23 -182 0
-52 -23 182 0
-181 179 0
-182 179 0
181 182 -179 0
24 53 -184 0
-24 53 184 0
24 -53 184 0
-24 -53 -184 0
184 179 -82 0
-184 179 82 0
184 -179 82 0
-184 -179 -82 0
179 -185 0
184 -185 0
-179 -184 185 0
53 -186 0
24 -186 0
-53 -24 186 0
-185 183 0
-186 183 0
185 186 -183 0
25 54 -188 0
-25 54 188 0
25 -54 188 0
-25 -54 -188 0
188 183 -83 0
-188 183 83 0
188 -183 83 0
-188 -183 -83 0
183 -189 0
188 -189 0
-183 -188 189 0
54 -190 0
25 -190 0
-54 -25 190 0
-189 187 0
-190 187 0
189 190 -187 0
26 55 -192 0
-26 55 192 0
26 -55 192 0
-26 -55 -192 0
192 187 -84 0
-192 187 84 0
192 -187 84 0
-192 -187 -84 0
187 -193 0
192 -193 0
-187 -192 193 0
55 -194 0
26 -194 0
-55 -26 194 0
-193 191 0
-194 191 0
193 194 -191 0
27 56 -196 0
-27 56 196 0
27 -56 196 0
-27 -56 -196 0
196 191 -85 0
-196 191 85 0
196 -191 85 0
-196 -191 -85 0
191 -197 0
196 -197 0
-191 -196 197 0
56 -198 0
27 -198 0
-56 -27 198 0
-197 195 0
-198 195 0
197 198 -195 0
28 57 -200 0
-28 57 200 0
28 -57 200 0
-28 -57 -200 0
200 195 -86 0
-200 195 86 0
200 -195 86 0
-200 -195 -86 0
195 -201 0
200 -201 0
-195 -200 201 0
57 -202 0
28 -202 0
-57 -28 202 0
-201 199 0
-202 199 0
201 202 -199 0
29 58 -203 0
-29 58 203 0
29 -58 203 0
-29 -58 -203 0
203 199 -87 0
-203 199 87 0
203 -199 87 0
-203 -199 -87 0
199 -204 0
203 -204 0
-199 -203 204 0
58 -205 0
29 -205 0
-58 -29 205 0
-204 88 0
-205 88 0
204 205 -88 0
